NAME : in_house_7_22
TYPE : TSP
DIMENSION : 7
EDGE_WEIGHT_TYPE : EXPLICIT
EDGE_WEIGHT_FORMAT : UPPER_ROW
COMMENT : INVERSION_SHIFT=5
EDGE_WEIGHT_SECTION
46
15
42
13
48
44
44
35
48
20
19
18
38
39
36
30
32
25
19
16
49
